c 20 promenne 20 klauzuli
c weights 43 14 89 34 28 20 68 70 32 64 6 35 91 59 98 34 56 79 48 57
p cnf 20 20
-1 2 3 4 -5 -7 -8 -11 13 15 -17 20 0
1 -2 5 6 -10 -11 12 -14 -15 -17 19 -20 0
2 3 4 -5 -6 7 -8 9 10 13 15 16 18 19 -20 0
-1 -2 -3 -4 6 7 -8 9 12 14 15 16 -18 20 0
-1 -3 5 -6 -7 10 -11 -12 13 14 -15 16 -17 19 20 0
-2 5 6 7 -8 -9 -10 -11 -13 15 -16 -20 0
1 3 -5 9 10 12 -13 15 16 -18 -19 0
-1 6 7 8 9 10 11 12 13 -15 17 -18 -20 0
2 3 5 -6 8 9 -12 13 14 -15 16 -19 0
-1 2 -3 -4 -7 -8 9 -10 -12 -14 -16 -17 -18 -19 -20 0
-1 2 -3 -4 -5 6 -9 10 11 -12 13 -14 -15 -16 17 19 -20 0
-1 2 -4 5 6 -7 8 9 -10 -12 -15 -17 -18 19 0
3 -4 8 10 -11 -14 15 16 -17 18 19 0
1 -2 4 5 9 10 -11 -12 14 -15 17 -18 19 20 0
1 2 -4 5 6 -7 8 -9 -11 12 13 14 15 -16 -19 20 0
2 3 4 7 8 9 10 -11 -12 14 15 17 -18 19 0
-1 -2 4 6 8 9 -10 -11 -12 -14 15 -17 20 0
3 4 5 -6 9 10 -11 14 -15 16 17 19 0
1 4 -5 -9 -10 -11 -12 14 -16 17 19 0
1 3 4 5 -6 7 -8 -9 -10 -11 -13 -15 -17 -20 0
